(set-option :auto-config false)
(set-option :produce-unsat-cores false)
(set-option :smt.mbqi.max_iterations 10000000)
(set-option :smt.relevancy 0)
(define-fun e2 ((c0 (_ BitVec 64)) (c1 (_ BitVec 64))) (_ BitVec 64) (_ bv1024 64))
(define-fun e3 ((c0 (_ BitVec 64)) (c1 (_ BitVec 64))) Bool (bvult c0 (e2 c0 c1)))
(define-fun e4 ((c0 (_ BitVec 64)) (c1 (_ BitVec 64))) Bool (bvult c1 (e2 c0 c1)))
(define-fun e5 ((c0 (_ BitVec 64)) (c1 (_ BitVec 64))) Bool (and (e3 c0 c1) (e4 c0 c1)))
(define-fun e6 ((c0 (_ BitVec 64)) (c1 (_ BitVec 64))) Bool (not (e5 c0 c1)))
(declare-fun c7 () Bool)
(define-fun e8 ((c0 (_ BitVec 64)) (c1 (_ BitVec 64))) Bool (not c7))
(declare-fun c9 () (_ BitVec 64))
(define-fun e10 ((c0 (_ BitVec 64)) (c1 (_ BitVec 64))) (_ BitVec 64) (_ bv512 64))
(define-fun e11 ((c0 (_ BitVec 64)) (c1 (_ BitVec 64))) Bool (bvult c9 (e10 c0 c1)))
(declare-fun c12 () (_ BitVec 64))
(define-fun e13 ((c0 (_ BitVec 64)) (c1 (_ BitVec 64))) Bool (bvult c12 (e2 c0 c1)))
(define-fun e14 ((c0 (_ BitVec 64)) (c1 (_ BitVec 64))) (_ BitVec 64) (_ bv3 64))
(declare-fun c15 ((_ BitVec 64)) (_ BitVec 64))
(define-fun e16 ((c0 (_ BitVec 64)) (c1 (_ BitVec 64))) (_ BitVec 64) (c15 c12))
(define-fun e17 ((c0 (_ BitVec 64)) (c1 (_ BitVec 64))) Bool (= (e14 c0 c1) (e16 c0 c1)))
(define-fun e18 ((c0 (_ BitVec 64)) (c1 (_ BitVec 64))) Bool (and (e13 c0 c1) (e17 c0 c1)))
(define-fun e19 ((c0 (_ BitVec 64)) (c1 (_ BitVec 64))) (_ BitVec 64) (_ bv0 64))
(declare-fun c20 ((_ BitVec 64) (_ BitVec 64)) (_ BitVec 64))
(define-fun e21 ((c0 (_ BitVec 64)) (c1 (_ BitVec 64))) (_ BitVec 64) (c20 c12 c9))
(define-fun e22 ((c0 (_ BitVec 64)) (c1 (_ BitVec 64))) Bool (= (e19 c0 c1) (e21 c0 c1)))
(declare-fun c23 () (_ BitVec 64))
(define-fun e24 ((c0 (_ BitVec 64)) (c1 (_ BitVec 64))) Bool (bvult c23 (e2 c0 c1)))
(define-fun e25 ((c0 (_ BitVec 64)) (c1 (_ BitVec 64))) (_ BitVec 64) (c15 c23))
(define-fun e26 ((c0 (_ BitVec 64)) (c1 (_ BitVec 64))) Bool (= (e19 c0 c1) (e25 c0 c1)))
(define-fun e27 ((c0 (_ BitVec 64)) (c1 (_ BitVec 64))) Bool (and (e24 c0 c1) (e26 c0 c1)))
(declare-fun c28 ((_ BitVec 64)) (_ BitVec 64))
(define-fun e29 ((c0 (_ BitVec 64)) (c1 (_ BitVec 64))) (_ BitVec 64) (c28 c12))
(define-fun e30 ((c0 (_ BitVec 64)) (c1 (_ BitVec 64))) (_ BitVec 64) (_ bv2 64))
(define-fun e31 ((c0 (_ BitVec 64)) (c1 (_ BitVec 64))) (_ BitVec 64) (c20 (e29 c0 c1) (e30 c0 c1)))
(define-fun e32 ((c0 (_ BitVec 64)) (c1 (_ BitVec 64))) Bool (= (e19 c0 c1) (e31 c0 c1)))
(define-fun e33 ((c0 (_ BitVec 64)) (c1 (_ BitVec 64))) Bool (and (e8 c0 c1) (e11 c0 c1) (e18 c0 c1) (e22 c0 c1) (e27 c0 c1) (e32 c0 c1)))
(define-fun e34 ((c0 (_ BitVec 64)) (c1 (_ BitVec 64))) Bool (= c0 (e29 c0 c1)))
(define-fun e35 ((c0 (_ BitVec 64)) (c1 (_ BitVec 64))) Bool (= c23 c1))
(define-fun e36 ((c0 (_ BitVec 64)) (c1 (_ BitVec 64))) Bool (and (e34 c0 c1) (e35 c0 c1)))
(declare-fun c37 ((_ BitVec 64)) (_ BitVec 64))
(define-fun e38 ((c0 (_ BitVec 64)) (c1 (_ BitVec 64))) (_ BitVec 64) (c37 (e29 c0 c1)))
(declare-fun c39 ((_ BitVec 64) (_ BitVec 64)) (_ BitVec 64))
(define-fun e40 ((c0 (_ BitVec 64)) (c1 (_ BitVec 64))) (_ BitVec 64) (c39 (e29 c0 c1) (e38 c0 c1)))
(define-fun e41 ((c0 (_ BitVec 64)) (c1 (_ BitVec 64))) Bool (= c1 (e40 c0 c1)))
(define-fun e42 ((c0 (_ BitVec 64)) (c1 (_ BitVec 64))) Bool (and (e34 c0 c1) (e41 c0 c1)))
(declare-fun c43 ((_ BitVec 64) (_ BitVec 64)) (_ BitVec 64))
(define-fun e44 ((c0 (_ BitVec 64)) (c1 (_ BitVec 64))) (_ BitVec 64) (c43 (e29 c0 c1) c23))
(define-fun e45 ((c0 (_ BitVec 64)) (c1 (_ BitVec 64))) (_ BitVec 64) (c43 c0 c1))
(define-fun e46 ((c0 (_ BitVec 64)) (c1 (_ BitVec 64))) (_ BitVec 64) (ite (e42 c0 c1) (e44 c0 c1) (e45 c0 c1)))
(define-fun e47 ((c0 (_ BitVec 64)) (c1 (_ BitVec 64))) (_ BitVec 64) (ite (e36 c0 c1) (e38 c0 c1) (e46 c0 c1)))
(define-fun e48 ((c0 (_ BitVec 64)) (c1 (_ BitVec 64))) Bool (not (e11 c0 c1)))
(define-fun e49 ((c0 (_ BitVec 64)) (c1 (_ BitVec 64))) Bool (not (e18 c0 c1)))
(define-fun e50 ((c0 (_ BitVec 64)) (c1 (_ BitVec 64))) Bool (not (e22 c0 c1)))
(define-fun e51 ((c0 (_ BitVec 64)) (c1 (_ BitVec 64))) Bool (not (e24 c0 c1)))
(define-fun e52 ((c0 (_ BitVec 64)) (c1 (_ BitVec 64))) Bool (not (e27 c0 c1)))
(define-fun e53 ((c0 (_ BitVec 64)) (c1 (_ BitVec 64))) Bool (not (e32 c0 c1)))
(define-fun e54 ((c0 (_ BitVec 64)) (c1 (_ BitVec 64))) Bool (and (e27 c0 c1) (e53 c0 c1)))
(define-fun e55 ((c0 (_ BitVec 64)) (c1 (_ BitVec 64))) Bool (or (e52 c0 c1) (e54 c0 c1)))
(define-fun e56 ((c0 (_ BitVec 64)) (c1 (_ BitVec 64))) Bool (and (e24 c0 c1) (e55 c0 c1)))
(define-fun e57 ((c0 (_ BitVec 64)) (c1 (_ BitVec 64))) Bool (or (e51 c0 c1) (e56 c0 c1)))
(define-fun e58 ((c0 (_ BitVec 64)) (c1 (_ BitVec 64))) Bool (and (e22 c0 c1) (e57 c0 c1)))
(define-fun e59 ((c0 (_ BitVec 64)) (c1 (_ BitVec 64))) Bool (or (e50 c0 c1) (e58 c0 c1)))
(define-fun e60 ((c0 (_ BitVec 64)) (c1 (_ BitVec 64))) Bool (and (e18 c0 c1) (e59 c0 c1)))
(define-fun e61 ((c0 (_ BitVec 64)) (c1 (_ BitVec 64))) Bool (or (e49 c0 c1) (e60 c0 c1)))
(define-fun e62 ((c0 (_ BitVec 64)) (c1 (_ BitVec 64))) Bool (and (e11 c0 c1) (e61 c0 c1)))
(define-fun e63 ((c0 (_ BitVec 64)) (c1 (_ BitVec 64))) Bool (or (e48 c0 c1) (e62 c0 c1)))
(define-fun e64 ((c0 (_ BitVec 64)) (c1 (_ BitVec 64))) Bool (and (e8 c0 c1) (e63 c0 c1)))
(define-fun e65 ((c0 (_ BitVec 64)) (c1 (_ BitVec 64))) Bool (or c7 (e64 c0 c1)))
(define-fun e66 ((c0 (_ BitVec 64)) (c1 (_ BitVec 64))) (_ BitVec 64) (bvor (ite (e33 c0 c1) (e47 c0 c1) (_ bv0 64)) (ite (e65 c0 c1) (e45 c0 c1) (_ bv0 64))))
(define-fun e67 ((c0 (_ BitVec 64)) (c1 (_ BitVec 64))) Bool (bvult (e66 c0 c1) (e2 c0 c1)))
(define-fun e68 ((c0 (_ BitVec 64)) (c1 (_ BitVec 64))) Bool (or (e6 c0 c1) (e67 c0 c1)))
(define-fun e69 () Bool (forall ((c0 (_ BitVec 64)) (c1 (_ BitVec 64))) (e68 c0 c1)))
(define-fun e71 ((c0 (_ BitVec 64)) (c1 (_ BitVec 64)) (c70 (_ BitVec 64))) (_ BitVec 64) (_ bv1024 64))
(define-fun e72 ((c0 (_ BitVec 64)) (c1 (_ BitVec 64)) (c70 (_ BitVec 64))) Bool (bvult c0 (e71 c0 c1 c70)))
(define-fun e73 ((c0 (_ BitVec 64)) (c1 (_ BitVec 64)) (c70 (_ BitVec 64))) Bool (bvult c1 (e71 c0 c1 c70)))
(define-fun e74 ((c0 (_ BitVec 64)) (c1 (_ BitVec 64)) (c70 (_ BitVec 64))) Bool (bvult c70 (e71 c0 c1 c70)))
(define-fun e75 ((c0 (_ BitVec 64)) (c1 (_ BitVec 64)) (c70 (_ BitVec 64))) Bool (and (e72 c0 c1 c70) (e73 c0 c1 c70) (e74 c0 c1 c70)))
(define-fun e76 ((c0 (_ BitVec 64)) (c1 (_ BitVec 64)) (c70 (_ BitVec 64))) Bool (not (e75 c0 c1 c70)))
(define-fun e77 ((c0 (_ BitVec 64)) (c1 (_ BitVec 64)) (c70 (_ BitVec 64))) Bool (not c7))
(define-fun e78 ((c0 (_ BitVec 64)) (c1 (_ BitVec 64)) (c70 (_ BitVec 64))) (_ BitVec 64) (_ bv512 64))
(define-fun e79 ((c0 (_ BitVec 64)) (c1 (_ BitVec 64)) (c70 (_ BitVec 64))) Bool (bvult c9 (e78 c0 c1 c70)))
(define-fun e80 ((c0 (_ BitVec 64)) (c1 (_ BitVec 64)) (c70 (_ BitVec 64))) Bool (bvult c12 (e71 c0 c1 c70)))
(define-fun e81 ((c0 (_ BitVec 64)) (c1 (_ BitVec 64)) (c70 (_ BitVec 64))) (_ BitVec 64) (_ bv3 64))
(define-fun e82 ((c0 (_ BitVec 64)) (c1 (_ BitVec 64)) (c70 (_ BitVec 64))) (_ BitVec 64) (c15 c12))
(define-fun e83 ((c0 (_ BitVec 64)) (c1 (_ BitVec 64)) (c70 (_ BitVec 64))) Bool (= (e81 c0 c1 c70) (e82 c0 c1 c70)))
(define-fun e84 ((c0 (_ BitVec 64)) (c1 (_ BitVec 64)) (c70 (_ BitVec 64))) Bool (and (e80 c0 c1 c70) (e83 c0 c1 c70)))
(define-fun e85 ((c0 (_ BitVec 64)) (c1 (_ BitVec 64)) (c70 (_ BitVec 64))) (_ BitVec 64) (_ bv0 64))
(define-fun e86 ((c0 (_ BitVec 64)) (c1 (_ BitVec 64)) (c70 (_ BitVec 64))) (_ BitVec 64) (c20 c12 c9))
(define-fun e87 ((c0 (_ BitVec 64)) (c1 (_ BitVec 64)) (c70 (_ BitVec 64))) Bool (= (e85 c0 c1 c70) (e86 c0 c1 c70)))
(define-fun e88 ((c0 (_ BitVec 64)) (c1 (_ BitVec 64)) (c70 (_ BitVec 64))) Bool (bvult c23 (e71 c0 c1 c70)))
(define-fun e89 ((c0 (_ BitVec 64)) (c1 (_ BitVec 64)) (c70 (_ BitVec 64))) (_ BitVec 64) (c15 c23))
(define-fun e90 ((c0 (_ BitVec 64)) (c1 (_ BitVec 64)) (c70 (_ BitVec 64))) Bool (= (e85 c0 c1 c70) (e89 c0 c1 c70)))
(define-fun e91 ((c0 (_ BitVec 64)) (c1 (_ BitVec 64)) (c70 (_ BitVec 64))) Bool (and (e88 c0 c1 c70) (e90 c0 c1 c70)))
(define-fun e92 ((c0 (_ BitVec 64)) (c1 (_ BitVec 64)) (c70 (_ BitVec 64))) (_ BitVec 64) (c28 c12))
(define-fun e93 ((c0 (_ BitVec 64)) (c1 (_ BitVec 64)) (c70 (_ BitVec 64))) (_ BitVec 64) (_ bv2 64))
(define-fun e94 ((c0 (_ BitVec 64)) (c1 (_ BitVec 64)) (c70 (_ BitVec 64))) (_ BitVec 64) (c20 (e92 c0 c1 c70) (e93 c0 c1 c70)))
(define-fun e95 ((c0 (_ BitVec 64)) (c1 (_ BitVec 64)) (c70 (_ BitVec 64))) Bool (= (e85 c0 c1 c70) (e94 c0 c1 c70)))
(define-fun e96 ((c0 (_ BitVec 64)) (c1 (_ BitVec 64)) (c70 (_ BitVec 64))) Bool (and (e77 c0 c1 c70) (e79 c0 c1 c70) (e84 c0 c1 c70) (e87 c0 c1 c70) (e91 c0 c1 c70) (e95 c0 c1 c70)))
(define-fun e97 ((c0 (_ BitVec 64)) (c1 (_ BitVec 64)) (c70 (_ BitVec 64))) Bool (= c0 (e92 c0 c1 c70)))
(define-fun e98 ((c0 (_ BitVec 64)) (c1 (_ BitVec 64)) (c70 (_ BitVec 64))) (_ BitVec 64) (c37 (e92 c0 c1 c70)))
(define-fun e99 ((c0 (_ BitVec 64)) (c1 (_ BitVec 64)) (c70 (_ BitVec 64))) Bool (= c70 (e98 c0 c1 c70)))
(define-fun e100 ((c0 (_ BitVec 64)) (c1 (_ BitVec 64)) (c70 (_ BitVec 64))) Bool (and (e97 c0 c1 c70) (e99 c0 c1 c70)))
(define-fun e101 ((c0 (_ BitVec 64)) (c1 (_ BitVec 64)) (c70 (_ BitVec 64))) (_ BitVec 64) (c43 (e92 c0 c1 c70) c23))
(define-fun e102 ((c0 (_ BitVec 64)) (c1 (_ BitVec 64)) (c70 (_ BitVec 64))) Bool (= c70 (e101 c0 c1 c70)))
(define-fun e103 ((c0 (_ BitVec 64)) (c1 (_ BitVec 64)) (c70 (_ BitVec 64))) Bool (and (e97 c0 c1 c70) (e102 c0 c1 c70)))
(define-fun e104 ((c0 (_ BitVec 64)) (c1 (_ BitVec 64)) (c70 (_ BitVec 64))) (_ BitVec 64) (c39 (e92 c0 c1 c70) (e98 c0 c1 c70)))
(define-fun e105 ((c0 (_ BitVec 64)) (c1 (_ BitVec 64)) (c70 (_ BitVec 64))) (_ BitVec 64) (c39 c0 c70))
(define-fun e106 ((c0 (_ BitVec 64)) (c1 (_ BitVec 64)) (c70 (_ BitVec 64))) (_ BitVec 64) (ite (e103 c0 c1 c70) (e104 c0 c1 c70) (e105 c0 c1 c70)))
(define-fun e107 ((c0 (_ BitVec 64)) (c1 (_ BitVec 64)) (c70 (_ BitVec 64))) (_ BitVec 64) (ite (e100 c0 c1 c70) c23 (e106 c0 c1 c70)))
(define-fun e108 ((c0 (_ BitVec 64)) (c1 (_ BitVec 64)) (c70 (_ BitVec 64))) Bool (not (e79 c0 c1 c70)))
(define-fun e109 ((c0 (_ BitVec 64)) (c1 (_ BitVec 64)) (c70 (_ BitVec 64))) Bool (not (e84 c0 c1 c70)))
(define-fun e110 ((c0 (_ BitVec 64)) (c1 (_ BitVec 64)) (c70 (_ BitVec 64))) Bool (not (e87 c0 c1 c70)))
(define-fun e111 ((c0 (_ BitVec 64)) (c1 (_ BitVec 64)) (c70 (_ BitVec 64))) Bool (not (e88 c0 c1 c70)))
(define-fun e112 ((c0 (_ BitVec 64)) (c1 (_ BitVec 64)) (c70 (_ BitVec 64))) Bool (not (e91 c0 c1 c70)))
(define-fun e113 ((c0 (_ BitVec 64)) (c1 (_ BitVec 64)) (c70 (_ BitVec 64))) Bool (not (e95 c0 c1 c70)))
(define-fun e114 ((c0 (_ BitVec 64)) (c1 (_ BitVec 64)) (c70 (_ BitVec 64))) Bool (and (e91 c0 c1 c70) (e113 c0 c1 c70)))
(define-fun e115 ((c0 (_ BitVec 64)) (c1 (_ BitVec 64)) (c70 (_ BitVec 64))) Bool (or (e112 c0 c1 c70) (e114 c0 c1 c70)))
(define-fun e116 ((c0 (_ BitVec 64)) (c1 (_ BitVec 64)) (c70 (_ BitVec 64))) Bool (and (e88 c0 c1 c70) (e115 c0 c1 c70)))
(define-fun e117 ((c0 (_ BitVec 64)) (c1 (_ BitVec 64)) (c70 (_ BitVec 64))) Bool (or (e111 c0 c1 c70) (e116 c0 c1 c70)))
(define-fun e118 ((c0 (_ BitVec 64)) (c1 (_ BitVec 64)) (c70 (_ BitVec 64))) Bool (and (e87 c0 c1 c70) (e117 c0 c1 c70)))
(define-fun e119 ((c0 (_ BitVec 64)) (c1 (_ BitVec 64)) (c70 (_ BitVec 64))) Bool (or (e110 c0 c1 c70) (e118 c0 c1 c70)))
(define-fun e120 ((c0 (_ BitVec 64)) (c1 (_ BitVec 64)) (c70 (_ BitVec 64))) Bool (and (e84 c0 c1 c70) (e119 c0 c1 c70)))
(define-fun e121 ((c0 (_ BitVec 64)) (c1 (_ BitVec 64)) (c70 (_ BitVec 64))) Bool (or (e109 c0 c1 c70) (e120 c0 c1 c70)))
(define-fun e122 ((c0 (_ BitVec 64)) (c1 (_ BitVec 64)) (c70 (_ BitVec 64))) Bool (and (e79 c0 c1 c70) (e121 c0 c1 c70)))
(define-fun e123 ((c0 (_ BitVec 64)) (c1 (_ BitVec 64)) (c70 (_ BitVec 64))) Bool (or (e108 c0 c1 c70) (e122 c0 c1 c70)))
(define-fun e124 ((c0 (_ BitVec 64)) (c1 (_ BitVec 64)) (c70 (_ BitVec 64))) Bool (and (e77 c0 c1 c70) (e123 c0 c1 c70)))
(define-fun e125 ((c0 (_ BitVec 64)) (c1 (_ BitVec 64)) (c70 (_ BitVec 64))) Bool (or c7 (e124 c0 c1 c70)))
(define-fun e126 ((c0 (_ BitVec 64)) (c1 (_ BitVec 64)) (c70 (_ BitVec 64))) (_ BitVec 64) (bvor (ite (e96 c0 c1 c70) (e107 c0 c1 c70) (_ bv0 64)) (ite (e125 c0 c1 c70) (e105 c0 c1 c70) (_ bv0 64))))
(define-fun e127 ((c0 (_ BitVec 64)) (c1 (_ BitVec 64)) (c70 (_ BitVec 64))) Bool (= c23 (e126 c0 c1 c70)))
(define-fun e128 ((c0 (_ BitVec 64)) (c1 (_ BitVec 64)) (c70 (_ BitVec 64))) Bool (and (e97 c0 c1 c70) (e127 c0 c1 c70)))
(define-fun e129 ((c0 (_ BitVec 64)) (c1 (_ BitVec 64)) (c70 (_ BitVec 64))) Bool (= (e104 c0 c1 c70) (e126 c0 c1 c70)))
(define-fun e130 ((c0 (_ BitVec 64)) (c1 (_ BitVec 64)) (c70 (_ BitVec 64))) Bool (and (e97 c0 c1 c70) (e129 c0 c1 c70)))
(define-fun e131 ((c0 (_ BitVec 64)) (c1 (_ BitVec 64)) (c70 (_ BitVec 64))) (_ BitVec 64) (c43 c0 (e126 c0 c1 c70)))
(define-fun e132 ((c0 (_ BitVec 64)) (c1 (_ BitVec 64)) (c70 (_ BitVec 64))) (_ BitVec 64) (ite (e130 c0 c1 c70) (e101 c0 c1 c70) (e131 c0 c1 c70)))
(define-fun e133 ((c0 (_ BitVec 64)) (c1 (_ BitVec 64)) (c70 (_ BitVec 64))) (_ BitVec 64) (ite (e128 c0 c1 c70) (e98 c0 c1 c70) (e132 c0 c1 c70)))
(define-fun e134 ((c0 (_ BitVec 64)) (c1 (_ BitVec 64)) (c70 (_ BitVec 64))) (_ BitVec 64) (bvor (ite (e96 c0 c1 c70) (e133 c0 c1 c70) (_ bv0 64)) (ite (e125 c0 c1 c70) (e131 c0 c1 c70) (_ bv0 64))))
(define-fun e135 ((c0 (_ BitVec 64)) (c1 (_ BitVec 64)) (c70 (_ BitVec 64))) Bool (= c70 (e134 c0 c1 c70)))
(define-fun e136 ((c0 (_ BitVec 64)) (c1 (_ BitVec 64)) (c70 (_ BitVec 64))) Bool (= c23 c1))
(define-fun e137 ((c0 (_ BitVec 64)) (c1 (_ BitVec 64)) (c70 (_ BitVec 64))) Bool (and (e97 c0 c1 c70) (e136 c0 c1 c70)))
(define-fun e138 ((c0 (_ BitVec 64)) (c1 (_ BitVec 64)) (c70 (_ BitVec 64))) Bool (= c1 (e104 c0 c1 c70)))
(define-fun e139 ((c0 (_ BitVec 64)) (c1 (_ BitVec 64)) (c70 (_ BitVec 64))) Bool (and (e97 c0 c1 c70) (e138 c0 c1 c70)))
(define-fun e140 ((c0 (_ BitVec 64)) (c1 (_ BitVec 64)) (c70 (_ BitVec 64))) (_ BitVec 64) (c43 c0 c1))
(define-fun e141 ((c0 (_ BitVec 64)) (c1 (_ BitVec 64)) (c70 (_ BitVec 64))) (_ BitVec 64) (ite (e139 c0 c1 c70) (e101 c0 c1 c70) (e140 c0 c1 c70)))
(define-fun e142 ((c0 (_ BitVec 64)) (c1 (_ BitVec 64)) (c70 (_ BitVec 64))) (_ BitVec 64) (ite (e137 c0 c1 c70) (e98 c0 c1 c70) (e141 c0 c1 c70)))
(define-fun e143 ((c0 (_ BitVec 64)) (c1 (_ BitVec 64)) (c70 (_ BitVec 64))) (_ BitVec 64) (bvor (ite (e96 c0 c1 c70) (e142 c0 c1 c70) (_ bv0 64)) (ite (e125 c0 c1 c70) (e140 c0 c1 c70) (_ bv0 64))))
(define-fun e144 ((c0 (_ BitVec 64)) (c1 (_ BitVec 64)) (c70 (_ BitVec 64))) Bool (= (e98 c0 c1 c70) (e143 c0 c1 c70)))
(define-fun e145 ((c0 (_ BitVec 64)) (c1 (_ BitVec 64)) (c70 (_ BitVec 64))) Bool (and (e97 c0 c1 c70) (e144 c0 c1 c70)))
(define-fun e146 ((c0 (_ BitVec 64)) (c1 (_ BitVec 64)) (c70 (_ BitVec 64))) Bool (= (e101 c0 c1 c70) (e143 c0 c1 c70)))
(define-fun e147 ((c0 (_ BitVec 64)) (c1 (_ BitVec 64)) (c70 (_ BitVec 64))) Bool (and (e97 c0 c1 c70) (e146 c0 c1 c70)))
(define-fun e148 ((c0 (_ BitVec 64)) (c1 (_ BitVec 64)) (c70 (_ BitVec 64))) (_ BitVec 64) (c39 c0 (e143 c0 c1 c70)))
(define-fun e149 ((c0 (_ BitVec 64)) (c1 (_ BitVec 64)) (c70 (_ BitVec 64))) (_ BitVec 64) (ite (e147 c0 c1 c70) (e104 c0 c1 c70) (e148 c0 c1 c70)))
(define-fun e150 ((c0 (_ BitVec 64)) (c1 (_ BitVec 64)) (c70 (_ BitVec 64))) (_ BitVec 64) (ite (e145 c0 c1 c70) c23 (e149 c0 c1 c70)))
(define-fun e151 ((c0 (_ BitVec 64)) (c1 (_ BitVec 64)) (c70 (_ BitVec 64))) (_ BitVec 64) (bvor (ite (e96 c0 c1 c70) (e150 c0 c1 c70) (_ bv0 64)) (ite (e125 c0 c1 c70) (e148 c0 c1 c70) (_ bv0 64))))
(define-fun e152 ((c0 (_ BitVec 64)) (c1 (_ BitVec 64)) (c70 (_ BitVec 64))) Bool (= c1 (e151 c0 c1 c70)))
(define-fun e153 ((c0 (_ BitVec 64)) (c1 (_ BitVec 64)) (c70 (_ BitVec 64))) Bool (and (e135 c0 c1 c70) (e152 c0 c1 c70)))
(define-fun e154 ((c0 (_ BitVec 64)) (c1 (_ BitVec 64)) (c70 (_ BitVec 64))) Bool (or (e76 c0 c1 c70) (e153 c0 c1 c70)))
(define-fun e155 () Bool (forall ((c0 (_ BitVec 64)) (c1 (_ BitVec 64)) (c70 (_ BitVec 64))) (e154 c0 c1 c70)))
(define-fun e156 ((c0 (_ BitVec 64))) (_ BitVec 64) (_ bv0 64))
(define-fun e157 ((c0 (_ BitVec 64))) Bool (not c7))
(define-fun e158 ((c0 (_ BitVec 64))) (_ BitVec 64) (_ bv512 64))
(define-fun e159 ((c0 (_ BitVec 64))) Bool (bvult c9 (e158 c0)))
(define-fun e160 ((c0 (_ BitVec 64))) (_ BitVec 64) (_ bv1024 64))
(define-fun e161 ((c0 (_ BitVec 64))) Bool (bvult c12 (e160 c0)))
(define-fun e162 ((c0 (_ BitVec 64))) (_ BitVec 64) (_ bv3 64))
(define-fun e163 ((c0 (_ BitVec 64))) (_ BitVec 64) (c15 c12))
(define-fun e164 ((c0 (_ BitVec 64))) Bool (= (e162 c0) (e163 c0)))
(define-fun e165 ((c0 (_ BitVec 64))) Bool (and (e161 c0) (e164 c0)))
(define-fun e166 ((c0 (_ BitVec 64))) (_ BitVec 64) (c20 c12 c9))
(define-fun e167 ((c0 (_ BitVec 64))) Bool (= (e156 c0) (e166 c0)))
(define-fun e168 ((c0 (_ BitVec 64))) Bool (bvult c23 (e160 c0)))
(define-fun e169 ((c0 (_ BitVec 64))) (_ BitVec 64) (c15 c23))
(define-fun e170 ((c0 (_ BitVec 64))) Bool (= (e156 c0) (e169 c0)))
(define-fun e171 ((c0 (_ BitVec 64))) Bool (and (e168 c0) (e170 c0)))
(define-fun e172 ((c0 (_ BitVec 64))) (_ BitVec 64) (c28 c12))
(define-fun e173 ((c0 (_ BitVec 64))) (_ BitVec 64) (_ bv2 64))
(define-fun e174 ((c0 (_ BitVec 64))) (_ BitVec 64) (c20 (e172 c0) (e173 c0)))
(define-fun e175 ((c0 (_ BitVec 64))) Bool (= (e156 c0) (e174 c0)))
(define-fun e176 ((c0 (_ BitVec 64))) Bool (and (e157 c0) (e159 c0) (e165 c0) (e167 c0) (e171 c0) (e175 c0)))
(define-fun e177 ((c0 (_ BitVec 64))) Bool (= c0 (e172 c0)))
(define-fun e178 ((c0 (_ BitVec 64))) Bool (= c23 c0))
(define-fun e179 ((c0 (_ BitVec 64))) Bool (and (e177 c0) (e178 c0)))
(define-fun e180 ((c0 (_ BitVec 64))) (_ BitVec 64) (c37 (e172 c0)))
(define-fun e181 ((c0 (_ BitVec 64))) (_ BitVec 64) (c39 (e172 c0) (e180 c0)))
(define-fun e182 ((c0 (_ BitVec 64))) Bool (= c0 (e181 c0)))
(define-fun e183 ((c0 (_ BitVec 64))) Bool (and (e177 c0) (e182 c0)))
(define-fun e184 ((c0 (_ BitVec 64))) (_ BitVec 64) (c43 (e172 c0) c23))
(define-fun e185 ((c0 (_ BitVec 64))) (_ BitVec 64) (c43 c0 c0))
(define-fun e186 ((c0 (_ BitVec 64))) (_ BitVec 64) (ite (e183 c0) (e184 c0) (e185 c0)))
(define-fun e187 ((c0 (_ BitVec 64))) (_ BitVec 64) (ite (e179 c0) (e180 c0) (e186 c0)))
(define-fun e188 ((c0 (_ BitVec 64))) Bool (not (e159 c0)))
(define-fun e189 ((c0 (_ BitVec 64))) Bool (not (e165 c0)))
(define-fun e190 ((c0 (_ BitVec 64))) Bool (not (e167 c0)))
(define-fun e191 ((c0 (_ BitVec 64))) Bool (not (e168 c0)))
(define-fun e192 ((c0 (_ BitVec 64))) Bool (not (e171 c0)))
(define-fun e193 ((c0 (_ BitVec 64))) Bool (not (e175 c0)))
(define-fun e194 ((c0 (_ BitVec 64))) Bool (and (e171 c0) (e193 c0)))
(define-fun e195 ((c0 (_ BitVec 64))) Bool (or (e192 c0) (e194 c0)))
(define-fun e196 ((c0 (_ BitVec 64))) Bool (and (e168 c0) (e195 c0)))
(define-fun e197 ((c0 (_ BitVec 64))) Bool (or (e191 c0) (e196 c0)))
(define-fun e198 ((c0 (_ BitVec 64))) Bool (and (e167 c0) (e197 c0)))
(define-fun e199 ((c0 (_ BitVec 64))) Bool (or (e190 c0) (e198 c0)))
(define-fun e200 ((c0 (_ BitVec 64))) Bool (and (e165 c0) (e199 c0)))
(define-fun e201 ((c0 (_ BitVec 64))) Bool (or (e189 c0) (e200 c0)))
(define-fun e202 ((c0 (_ BitVec 64))) Bool (and (e159 c0) (e201 c0)))
(define-fun e203 ((c0 (_ BitVec 64))) Bool (or (e188 c0) (e202 c0)))
(define-fun e204 ((c0 (_ BitVec 64))) Bool (and (e157 c0) (e203 c0)))
(define-fun e205 ((c0 (_ BitVec 64))) Bool (or c7 (e204 c0)))
(define-fun e206 ((c0 (_ BitVec 64))) (_ BitVec 64) (bvor (ite (e176 c0) (e187 c0) (_ bv0 64)) (ite (e205 c0) (e185 c0) (_ bv0 64))))
(define-fun e207 ((c0 (_ BitVec 64))) Bool (= (e156 c0) (e206 c0)))
(define-fun e208 ((c0 (_ BitVec 64))) Bool (= (e156 c0) (e180 c0)))
(define-fun e209 ((c0 (_ BitVec 64))) Bool (and (e177 c0) (e208 c0)))
(define-fun e210 ((c0 (_ BitVec 64))) Bool (= (e156 c0) (e184 c0)))
(define-fun e211 ((c0 (_ BitVec 64))) Bool (and (e177 c0) (e210 c0)))
(define-fun e212 ((c0 (_ BitVec 64))) (_ BitVec 64) (c39 c0 (e156 c0)))
(define-fun e213 ((c0 (_ BitVec 64))) (_ BitVec 64) (ite (e211 c0) (e181 c0) (e212 c0)))
(define-fun e214 ((c0 (_ BitVec 64))) (_ BitVec 64) (ite (e209 c0) c23 (e213 c0)))
(define-fun e215 ((c0 (_ BitVec 64))) (_ BitVec 64) (bvor (ite (e176 c0) (e214 c0) (_ bv0 64)) (ite (e205 c0) (e212 c0) (_ bv0 64))))
(define-fun e216 ((c0 (_ BitVec 64))) Bool (= c0 (e215 c0)))
(define-fun e217 ((c0 (_ BitVec 64))) Bool (and (e207 c0) (e216 c0)))
(define-fun e218 ((c0 (_ BitVec 64))) Bool (bvult c0 (e160 c0)))
(define-fun e219 ((c0 (_ BitVec 64))) (_ BitVec 64) (c28 c0))
(define-fun e220 ((c0 (_ BitVec 64))) (_ BitVec 64) (ite (e178 c0) (e172 c0) (e219 c0)))
(define-fun e221 ((c0 (_ BitVec 64))) (_ BitVec 64) (bvor (ite (e176 c0) (e220 c0) (_ bv0 64)) (ite (e205 c0) (e219 c0) (_ bv0 64))))
(define-fun e222 ((c0 (_ BitVec 64))) Bool (= c0 (e221 c0)))
(define-fun e223 ((c0 (_ BitVec 64))) (_ BitVec 64) (_ bv4 64))
(define-fun e224 ((c0 (_ BitVec 64))) (_ BitVec 64) (c15 c0))
(define-fun e225 ((c0 (_ BitVec 64))) (_ BitVec 64) (ite (e178 c0) (e223 c0) (e224 c0)))
(define-fun e226 ((c0 (_ BitVec 64))) (_ BitVec 64) (bvor (ite (e176 c0) (e225 c0) (_ bv0 64)) (ite (e205 c0) (e224 c0) (_ bv0 64))))
(define-fun e227 ((c0 (_ BitVec 64))) Bool (= (e156 c0) (e226 c0)))
(define-fun e228 ((c0 (_ BitVec 64))) Bool (and (e218 c0) (e227 c0)))
(define-fun e229 ((c0 (_ BitVec 64))) Bool (not (e228 c0)))
(define-fun e230 ((c0 (_ BitVec 64))) Bool (and (e222 c0) (e229 c0)))
(define-fun e231 ((c0 (_ BitVec 64))) Bool (and (e218 c0) (e230 c0)))
(define-fun e232 ((c0 (_ BitVec 64))) Bool (not (e231 c0)))
(define-fun e233 ((c0 (_ BitVec 64))) Bool (or (e217 c0) (e232 c0)))
(define-fun e234 () Bool (forall ((c0 (_ BitVec 64))) (e233 c0)))
(define-fun e235 ((c0 (_ BitVec 64)) (c1 (_ BitVec 64))) (_ BitVec 64) (c28 c1))
(define-fun e236 ((c0 (_ BitVec 64)) (c1 (_ BitVec 64))) (_ BitVec 64) (ite (e35 c0 c1) (e29 c0 c1) (e235 c0 c1)))
(define-fun e237 ((c0 (_ BitVec 64)) (c1 (_ BitVec 64))) (_ BitVec 64) (bvor (ite (e33 c0 c1) (e236 c0 c1) (_ bv0 64)) (ite (e65 c0 c1) (e235 c0 c1) (_ bv0 64))))
(define-fun e238 ((c0 (_ BitVec 64)) (c1 (_ BitVec 64))) Bool (= c0 (e237 c0 c1)))
(define-fun e239 ((c0 (_ BitVec 64)) (c1 (_ BitVec 64))) (_ BitVec 64) (_ bv4 64))
(define-fun e240 ((c0 (_ BitVec 64)) (c1 (_ BitVec 64))) (_ BitVec 64) (c15 c1))
(define-fun e241 ((c0 (_ BitVec 64)) (c1 (_ BitVec 64))) (_ BitVec 64) (ite (e35 c0 c1) (e239 c0 c1) (e240 c0 c1)))
(define-fun e242 ((c0 (_ BitVec 64)) (c1 (_ BitVec 64))) (_ BitVec 64) (bvor (ite (e33 c0 c1) (e241 c0 c1) (_ bv0 64)) (ite (e65 c0 c1) (e240 c0 c1) (_ bv0 64))))
(define-fun e243 ((c0 (_ BitVec 64)) (c1 (_ BitVec 64))) Bool (= (e19 c0 c1) (e242 c0 c1)))
(define-fun e244 ((c0 (_ BitVec 64)) (c1 (_ BitVec 64))) Bool (and (e4 c0 c1) (e243 c0 c1)))
(define-fun e245 ((c0 (_ BitVec 64)) (c1 (_ BitVec 64))) Bool (not (e244 c0 c1)))
(define-fun e246 ((c0 (_ BitVec 64)) (c1 (_ BitVec 64))) Bool (and (e238 c0 c1) (e245 c0 c1)))
(define-fun e247 ((c0 (_ BitVec 64)) (c1 (_ BitVec 64))) (_ BitVec 64) (_ bv1 64))
(define-fun e248 ((c0 (_ BitVec 64)) (c1 (_ BitVec 64))) (_ BitVec 64) (c37 c0))
(define-fun e249 ((c0 (_ BitVec 64)) (c1 (_ BitVec 64))) (_ BitVec 64) (bvadd (e247 c0 c1) (e248 c0 c1)))
(define-fun e250 ((c0 (_ BitVec 64)) (c1 (_ BitVec 64))) (_ BitVec 64) (ite (e34 c0 c1) (e249 c0 c1) (e248 c0 c1)))
(define-fun e251 ((c0 (_ BitVec 64)) (c1 (_ BitVec 64))) (_ BitVec 64) (bvor (ite (e33 c0 c1) (e250 c0 c1) (_ bv0 64)) (ite (e65 c0 c1) (e248 c0 c1) (_ bv0 64))))
(define-fun e252 ((c0 (_ BitVec 64)) (c1 (_ BitVec 64))) Bool (bvult (e66 c0 c1) (e251 c0 c1)))
(define-fun e253 ((c0 (_ BitVec 64)) (c1 (_ BitVec 64))) Bool (and (=> (e246 c0 c1) (e252 c0 c1)) (=> (e252 c0 c1) (e246 c0 c1))))
(define-fun e254 ((c0 (_ BitVec 64)) (c1 (_ BitVec 64))) Bool (or (e6 c0 c1) (e253 c0 c1)))
(define-fun e255 () Bool (forall ((c0 (_ BitVec 64)) (c1 (_ BitVec 64))) (e254 c0 c1)))
(define-fun e256 ((c0 (_ BitVec 64))) Bool (not (e218 c0)))
(define-fun e257 ((c0 (_ BitVec 64))) (_ BitVec 64) (_ bv1 64))
(define-fun e258 ((c0 (_ BitVec 64))) (_ BitVec 64) (c37 c0))
(define-fun e259 ((c0 (_ BitVec 64))) (_ BitVec 64) (bvadd (e257 c0) (e258 c0)))
(define-fun e260 ((c0 (_ BitVec 64))) (_ BitVec 64) (ite (e177 c0) (e259 c0) (e258 c0)))
(define-fun e261 ((c0 (_ BitVec 64))) (_ BitVec 64) (bvor (ite (e176 c0) (e260 c0) (_ bv0 64)) (ite (e205 c0) (e258 c0) (_ bv0 64))))
(define-fun e262 ((c0 (_ BitVec 64))) Bool (bvule (e261 c0) (e160 c0)))
(define-fun e263 ((c0 (_ BitVec 64))) Bool (or (e256 c0) (e262 c0)))
(define-fun e264 () Bool (forall ((c0 (_ BitVec 64))) (e263 c0)))
(define-fun e265 () Bool (and e69 e155 e234 e255 e264))
(define-fun e267 ((c266 (_ BitVec 64))) (_ BitVec 64) (c28 c266))
(define-fun e268 ((c266 (_ BitVec 64))) Bool (= c266 (e267 c266)))
(define-fun e269 ((c266 (_ BitVec 64))) (_ BitVec 64) (_ bv1024 64))
(define-fun e270 ((c266 (_ BitVec 64))) Bool (bvult c266 (e269 c266)))
(define-fun e271 ((c266 (_ BitVec 64))) (_ BitVec 64) (_ bv1 64))
(define-fun e272 ((c266 (_ BitVec 64))) (_ BitVec 64) (c15 c266))
(define-fun e273 ((c266 (_ BitVec 64))) Bool (= (e271 c266) (e272 c266)))
(define-fun e274 ((c266 (_ BitVec 64))) Bool (and (e270 c266) (e273 c266)))
(define-fun e275 ((c266 (_ BitVec 64))) Bool (not (e274 c266)))
(define-fun e276 ((c266 (_ BitVec 64))) Bool (or (e268 c266) (e275 c266)))
(define-fun e277 () Bool (forall ((c266 (_ BitVec 64))) (e276 c266)))
(define-fun e278 ((c266 (_ BitVec 64))) Bool (bvult (e267 c266) (e269 c266)))
(define-fun e279 ((c266 (_ BitVec 64))) (_ BitVec 64) (_ bv0 64))
(define-fun e280 ((c266 (_ BitVec 64))) Bool (= (e279 c266) (e272 c266)))
(define-fun e281 ((c266 (_ BitVec 64))) Bool (not (e280 c266)))
(define-fun e282 ((c266 (_ BitVec 64))) Bool (and (e270 c266) (e281 c266)))
(define-fun e283 ((c266 (_ BitVec 64))) Bool (not (e282 c266)))
(define-fun e284 ((c266 (_ BitVec 64))) Bool (or (e278 c266) (e283 c266)))
(define-fun e285 () Bool (forall ((c266 (_ BitVec 64))) (e284 c266)))
(declare-fun c286 () (_ BitVec 64))
(define-fun e287 () (_ BitVec 64) (_ bv1024 64))
(define-fun e288 () Bool (bvult c286 e287))
(define-fun e289 () (_ BitVec 64) (_ bv2 64))
(define-fun e290 () (_ BitVec 64) (c15 c286))
(define-fun e291 () Bool (= e289 e290))
(define-fun e292 () Bool (and e288 e291))
(define-fun e293 () Bool (not c7))
(define-fun e294 () Bool (or e292 e293))
(define-fun e295 ((c266 (_ BitVec 64))) (_ BitVec 64) (c37 c266))
(define-fun e296 ((c266 (_ BitVec 64))) Bool (= (e279 c266) (e295 c266)))
(define-fun e297 ((c266 (_ BitVec 64))) Bool (and (e270 c266) (e275 c266)))
(define-fun e298 ((c266 (_ BitVec 64))) Bool (not (e297 c266)))
(define-fun e299 ((c266 (_ BitVec 64))) Bool (or (e296 c266) (e298 c266)))
(define-fun e300 () Bool (forall ((c266 (_ BitVec 64))) (e299 c266)))
(define-fun e301 ((c266 (_ BitVec 64))) (_ BitVec 64) (c20 c266 (e271 c266)))
(define-fun e302 ((c266 (_ BitVec 64))) Bool (= (e295 c266) (e301 c266)))
(define-fun e303 ((c266 (_ BitVec 64))) Bool (or (e275 c266) (e302 c266)))
(define-fun e304 () Bool (forall ((c266 (_ BitVec 64))) (e303 c266)))
(define-fun e305 ((c0 (_ BitVec 64)) (c1 (_ BitVec 64))) Bool (bvult (e45 c0 c1) (e2 c0 c1)))
(define-fun e306 ((c0 (_ BitVec 64)) (c1 (_ BitVec 64))) Bool (or (e305 c0 c1) (e6 c0 c1)))
(define-fun e307 () Bool (forall ((c0 (_ BitVec 64)) (c1 (_ BitVec 64))) (e306 c0 c1)))
(define-fun e308 ((c0 (_ BitVec 64)) (c1 (_ BitVec 64)) (c70 (_ BitVec 64))) (_ BitVec 64) (c43 c0 (e105 c0 c1 c70)))
(define-fun e309 ((c0 (_ BitVec 64)) (c1 (_ BitVec 64)) (c70 (_ BitVec 64))) Bool (= c70 (e308 c0 c1 c70)))
(define-fun e310 ((c0 (_ BitVec 64)) (c1 (_ BitVec 64)) (c70 (_ BitVec 64))) (_ BitVec 64) (c39 c0 (e140 c0 c1 c70)))
(define-fun e311 ((c0 (_ BitVec 64)) (c1 (_ BitVec 64)) (c70 (_ BitVec 64))) Bool (= c1 (e310 c0 c1 c70)))
(define-fun e312 ((c0 (_ BitVec 64)) (c1 (_ BitVec 64)) (c70 (_ BitVec 64))) Bool (and (e309 c0 c1 c70) (e311 c0 c1 c70)))
(define-fun e313 ((c0 (_ BitVec 64)) (c1 (_ BitVec 64)) (c70 (_ BitVec 64))) Bool (or (e312 c0 c1 c70) (e76 c0 c1 c70)))
(define-fun e314 () Bool (forall ((c0 (_ BitVec 64)) (c1 (_ BitVec 64)) (c70 (_ BitVec 64))) (e313 c0 c1 c70)))
(define-fun e315 ((c0 (_ BitVec 64))) Bool (= (e156 c0) (e185 c0)))
(define-fun e316 ((c0 (_ BitVec 64))) Bool (= c0 (e212 c0)))
(define-fun e317 ((c0 (_ BitVec 64))) Bool (and (e315 c0) (e316 c0)))
(define-fun e318 ((c0 (_ BitVec 64))) Bool (= c0 (e219 c0)))
(define-fun e319 ((c0 (_ BitVec 64))) Bool (= (e156 c0) (e224 c0)))
(define-fun e320 ((c0 (_ BitVec 64))) Bool (and (e218 c0) (e319 c0)))
(define-fun e321 ((c0 (_ BitVec 64))) Bool (not (e320 c0)))
(define-fun e322 ((c0 (_ BitVec 64))) Bool (and (e318 c0) (e321 c0)))
(define-fun e323 ((c0 (_ BitVec 64))) Bool (and (e218 c0) (e322 c0)))
(define-fun e324 ((c0 (_ BitVec 64))) Bool (not (e323 c0)))
(define-fun e325 ((c0 (_ BitVec 64))) Bool (or (e317 c0) (e324 c0)))
(define-fun e326 () Bool (forall ((c0 (_ BitVec 64))) (e325 c0)))
(define-fun e327 ((c0 (_ BitVec 64)) (c1 (_ BitVec 64))) Bool (= c0 (e235 c0 c1)))
(define-fun e328 ((c0 (_ BitVec 64)) (c1 (_ BitVec 64))) Bool (= (e19 c0 c1) (e240 c0 c1)))
(define-fun e329 ((c0 (_ BitVec 64)) (c1 (_ BitVec 64))) Bool (and (e4 c0 c1) (e328 c0 c1)))
(define-fun e330 ((c0 (_ BitVec 64)) (c1 (_ BitVec 64))) Bool (not (e329 c0 c1)))
(define-fun e331 ((c0 (_ BitVec 64)) (c1 (_ BitVec 64))) Bool (and (e327 c0 c1) (e330 c0 c1)))
(define-fun e332 ((c0 (_ BitVec 64)) (c1 (_ BitVec 64))) Bool (bvult (e45 c0 c1) (e248 c0 c1)))
(define-fun e333 ((c0 (_ BitVec 64)) (c1 (_ BitVec 64))) Bool (and (=> (e331 c0 c1) (e332 c0 c1)) (=> (e332 c0 c1) (e331 c0 c1))))
(define-fun e334 ((c0 (_ BitVec 64)) (c1 (_ BitVec 64))) Bool (or (e6 c0 c1) (e333 c0 c1)))
(define-fun e335 () Bool (forall ((c0 (_ BitVec 64)) (c1 (_ BitVec 64))) (e334 c0 c1)))
(define-fun e336 ((c0 (_ BitVec 64))) Bool (bvule (e258 c0) (e160 c0)))
(define-fun e337 ((c0 (_ BitVec 64))) Bool (or (e336 c0) (e256 c0)))
(define-fun e338 () Bool (forall ((c0 (_ BitVec 64))) (e337 c0)))
(define-fun e339 () Bool (and e307 e314 e326 e335 e338))
(define-fun e340 () Bool (and e277 e285 e288 e294 e300 e304 e339))
(define-fun e341 () Bool (not e340))
(define-fun e342 () Bool (or e265 e341))
(define-fun e343 () Bool (not e342))
(assert e343)
(check-sat)
